
Value of objective function: 22.00000000

Actual values of the variables:
t1                              1
t2                              0
t3                              0
t4                              1
t5                              0
t6                              1
t7                              0
t8                              0
t9                              1
t10                             0
t11                             1
t12                             1
t13                             0
t14                             0
t15                             0
t16                             1
t17                             0
t18                             0
t19                             0
t20                             0
t21                             0
t22                             1
t23                             0
t24                             1
t25                             1
t26                             0
t27                             0
t28                             0
t29                             0
t30                             0
t31                             1
t32                             0
t33                             0
t34                             0
t35                             0
t36                             0
t37                             1
t38                             0
t39                             0
t40                             0
t41                             1
t42                             1
t43                             1
t44                             0
t45                             1
t46                             0
t47                             0
t48                             0
t49                             0
t50                             0
t51                             0
t52                             0
t53                             0
t54                             1
t55                             1
t56                             0
t57                             0
t58                             0
t59                             0
t60                             0
t61                             0
t62                             0
t63                             0
t64                             0
t65                             0
t66                             1
t67                             1
t68                             0
t69                             1
t70                             0
t71                             0
t72                             1
